(set-logic QF_UF)
(declare-const p Bool)
(declare-const q Bool)
(declare-const r Bool)
(assert (not p))
(assert (not (not (or p q r))))
(assert (not (not (or p (not q)))))
(assert (not r))
(check-sat)